(declare-fun x4 () Real)
(declare-fun x3 () Real)
(declare-fun x2 () Real)
(declare-fun x1 () Real)
(declare-fun x0 () Real)
(assert (let ((a!1 (+ (* x0 200000000.0)
              (* x1 200000000.0)
              (* x2 200000000.0)
              (* x3 200000000.0)
              (* x4 200000000.0)
              (- 900000000.0))))
(let ((a!2 (ite (< a!1 0.0)
                0.0
                (ite (> a!1 1.0) 1.0 (+ (* (/ 1.0 4.0) a!1) (/ 1.0 2.0))))))
  (=> (and (= x0 0.0) (= x1 0.0) (= x2 0.0) (= x3 0.0) (= x4 0.0)) (= a!2 0.0)))))
(assert (let ((a!1 (+ (* x0 200000000.0)
              (* x1 200000000.0)
              (* x2 200000000.0)
              (* x3 200000000.0)
              (* x4 200000000.0)
              (- 900000000.0))))
(let ((a!2 (ite (< a!1 0.0)
                0.0
                (ite (> a!1 1.0) 1.0 (+ (* (/ 1.0 4.0) a!1) (/ 1.0 2.0))))))
  (=> (and (= x0 0.0) (= x1 1.0) (= x2 1.0) (= x3 1.0) (= x4 1.0)) (= a!2 0.0)))))
(assert (let ((a!1 (+ (* x0 200000000.0)
              (* x1 200000000.0)
              (* x2 200000000.0)
              (* x3 200000000.0)
              (* x4 200000000.0)
              (- 900000000.0))))
(let ((a!2 (ite (< a!1 0.0)
                0.0
                (ite (> a!1 1.0) 1.0 (+ (* (/ 1.0 4.0) a!1) (/ 1.0 2.0))))))
  (=> (and (= x0 0.0) (= x1 0.0) (= x2 0.0) (= x3 0.0) (= x4 1.0)) (= a!2 0.0)))))
(assert (let ((a!1 (+ (* x0 200000000.0)
              (* x1 200000000.0)
              (* x2 200000000.0)
              (* x3 200000000.0)
              (* x4 200000000.0)
              (- 900000000.0))))
(let ((a!2 (ite (< a!1 0.0)
                0.0
                (ite (> a!1 1.0) 1.0 (+ (* (/ 1.0 4.0) a!1) (/ 1.0 2.0))))))
  (=> (and (= x0 1.0) (= x1 1.0) (= x2 1.0) (= x3 1.0) (= x4 1.0)) (= a!2 1.0)))))
(check-sat)
